============================[ Problem Statistics ]=============================|                                                                             ||  Number of variables:           100                                         ||  Number of clauses:            1500                                         ||  Parse time:                   0.00 s                                       ||  Eliminated clauses:           0.00 Mb                                      ||  Simplification time:          0.00 s                                       ||                                                                             |============================[ Search Statistics ]==============================| Conflicts |          ORIGINAL         |          LEARNT          | Progress ||           |    Vars  Clauses Literals |    Limit  Clauses Lit/Cl |          |==============================================================================================================================================================restarts              : 1conflicts             : 34             (8500 /sec)decisions             : 37             (0.00 % random) (9250 /sec)propagations          : 354            (88500 /sec)conflict literals     : 98             (14.04 % deleted)Memory used           : 5.00 MBCPU time              : 0.004 sUNSATISFIABLE